2 100 988
5 5 5 6 2 7 5 4 0 2
4 1
9 2 6 7
6
0 40.0 50.0 0.0 0.0 0 240
2 25.0 85.0 10.0 20.0 145 175 42 0 0 0 0 0 1 0 0 0 0
3 22.0 75.0 10.0 30.0 50 80 28 0 0 0 1 0 1 0 1 1 0
4 22.0 85.0 10.0 10.0 109 139 6 0 1 0 0 0 0 0 0 0 0
5 20.0 80.0 10.0 40.0 141 171 1 0 0 0 0 0 1 1 0 0 0
6 20.0 85.0 10.0 20.0 41 71 70 0 0 1 0 1 0 0 0 0 1
7 18.0 75.0 10.0 20.0 95 125 6 0 0 0 0 1 0 1 0 1 0
8 15.0 75.0 10.0 20.0 79 109 9 0 0 0 0 1 1 0 0 0 0
9 15.0 80.0 10.0 10.0 91 121 10 0 0 0 0 0 1 0 0 0 0
10 10.0 35.0 10.0 20.0 91 121 87 1 1 0 0 0 0 0 0 0 1
11 10.0 40.0 10.0 30.0 119 149 74 1 0 0 0 1 1 0 0 0 0
12 8.0 40.0 10.0 40.0 59 89 54 0 0 1 0 0 0 0 0 0 0
13 8.0 45.0 10.0 20.0 64 94 70 1 0 0 0 0 0 1 0 0 0
14 5.0 35.0 10.0 10.0 142 172 72 0 0 0 0 0 0 1 0 0 0
15 5.0 45.0 10.0 10.0 35 65 43 1 0 0 1 0 0 1 0 0 0
16 2.0 40.0 10.0 20.0 58 88 71 1 0 1 0 0 0 0 0 0 0
17 0.0 40.0 10.0 20.0 72 102 46 0 0 0 1 1 0 0 0 0 0
18 0.0 45.0 10.0 20.0 149 179 96 1 0 0 0 1 0 0 0 0 1
19 44.0 5.0 10.0 20.0 87 117 27 0 0 1 0 0 0 0 0 0 1
20 42.0 10.0 10.0 40.0 72 102 44 0 0 0 0 0 1 0 0 0 0
21 42.0 15.0 10.0 10.0 122 152 50 0 0 0 0 0 1 1 0 0 0
22 40.0 5.0 10.0 10.0 67 97 18 0 0 0 0 0 1 0 0 0 0
23 40.0 15.0 10.0 40.0 92 122 31 0 1 0 1 0 0 0 0 0 0
24 38.0 5.0 10.0 30.0 65 95 46 0 0 0 0 0 1 0 0 0 0
25 38.0 15.0 10.0 10.0 148 178 98 0 0 0 1 0 0 1 0 1 0
26 35.0 5.0 10.0 20.0 154 184 93 1 0 0 0 0 0 0 1 0 0
27 95.0 30.0 10.0 30.0 115 145 21 0 0 0 0 0 0 0 0 1 0
28 95.0 35.0 10.0 20.0 62 92 75 1 0 0 0 0 1 0 1 0 0
29 92.0 30.0 10.0 10.0 62 92 26 0 0 0 0 0 0 0 1 0 0
30 90.0 35.0 10.0 10.0 67 97 14 1 0 0 1 0 0 1 0 0 0
31 88.0 30.0 10.0 10.0 74 104 76 0 0 0 1 0 0 0 0 0 1
32 88.0 35.0 10.0 20.0 61 91 39 0 0 0 1 0 0 0 0 0 0
33 87.0 30.0 10.0 10.0 131 161 53 0 1 0 1 0 1 1 0 0 1
34 85.0 25.0 10.0 10.0 51 81 54 0 1 0 0 1 0 0 0 0 0
35 85.0 35.0 10.0 30.0 111 141 39 0 1 1 0 0 0 0 0 0 1
36 67.0 85.0 10.0 20.0 139 169 85 1 0 1 0 1 0 1 0 1 0
37 65.0 85.0 10.0 40.0 43 73 42 0 1 0 1 0 1 0 0 0 0
38 65.0 82.0 10.0 10.0 124 154 35 0 0 0 0 0 0 0 0 1 0
39 62.0 80.0 10.0 30.0 75 105 98 1 1 0 0 1 0 1 1 0 0
40 60.0 80.0 10.0 10.0 37 67 84 0 1 1 0 0 0 0 0 0 1
41 60.0 85.0 10.0 30.0 85 115 44 1 0 0 1 0 0 0 1 0 0
42 58.0 75.0 10.0 20.0 92 122 97 1 0 0 0 0 1 0 1 0 0
43 55.0 80.0 10.0 10.0 33 63 22 0 1 0 0 0 0 0 0 0 0
44 55.0 85.0 10.0 20.0 128 158 92 1 0 0 0 0 1 0 1 0 0
45 55.0 82.0 10.0 10.0 64 94 1 0 0 0 1 0 0 1 1 0 0
46 20.0 82.0 10.0 10.0 37 67 22 0 0 1 1 1 0 0 0 0 0
47 18.0 80.0 10.0 10.0 113 143 33 0 0 0 0 0 1 0 0 0 0
48 2.0 45.0 10.0 10.0 45 75 73 1 0 0 0 0 0 0 1 0 1
49 42.0 5.0 10.0 10.0 151 181 10 0 0 0 0 1 0 0 0 0 0
50 42.0 12.0 10.0 10.0 104 134 15 1 1 0 0 1 0 0 0 0 0
51 72.0 35.0 10.0 30.0 116 146 50 0 0 0 1 0 0 0 0 0 0
52 55.0 20.0 10.0 19.0 83 113 97 0 0 0 1 0 0 0 1 1 0
53 25.0 30.0 10.0 3.0 52 82 37 0 0 0 1 1 0 1 1 0 0
54 20.0 50.0 10.0 5.0 91 121 55 0 0 0 0 0 0 1 1 0 0
55 55.0 60.0 10.0 16.0 139 169 71 0 0 1 0 0 0 0 0 0 0
56 30.0 60.0 10.0 16.0 140 170 19 0 0 0 0 0 0 1 0 1 1
57 50.0 35.0 10.0 19.0 130 160 80 0 1 1 0 1 0 0 0 0 0
58 30.0 25.0 10.0 23.0 96 126 43 0 0 0 1 0 0 0 0 1 0
59 15.0 10.0 10.0 20.0 152 182 12 1 1 0 1 0 0 0 0 0 1
60 10.0 20.0 10.0 19.0 42 72 96 1 0 0 0 0 0 0 0 0 0
61 15.0 60.0 10.0 17.0 155 185 62 0 0 0 0 1 1 0 0 1 1
62 45.0 65.0 10.0 9.0 66 96 48 0 0 0 0 0 0 0 1 0 0
63 65.0 35.0 10.0 3.0 52 82 63 1 0 0 0 0 0 0 0 1 0
64 65.0 20.0 10.0 6.0 39 69 47 0 0 0 0 0 1 0 0 1 0
65 45.0 30.0 10.0 17.0 53 83 0 0 1 1 0 0 0 0 1 0 0
66 35.0 40.0 10.0 16.0 11 41 32 0 0 0 0 1 1 0 1 0 0
67 41.0 37.0 10.0 16.0 133 163 67 0 0 1 0 0 0 0 1 1 0
68 64.0 42.0 10.0 9.0 70 100 30 1 0 0 1 0 0 0 0 0 0
69 40.0 60.0 10.0 21.0 144 174 66 0 1 0 0 1 1 0 0 1 0
70 31.0 52.0 10.0 27.0 41 71 12 0 0 0 1 0 0 0 0 0 1
71 35.0 69.0 10.0 23.0 180 210 70 0 0 1 1 0 0 0 0 0 0
72 65.0 55.0 10.0 14.0 65 95 23 0 1 0 0 0 0 0 0 1 0
73 63.0 65.0 10.0 8.0 30 60 71 0 0 0 0 0 0 0 0 1 1
74 2.0 60.0 10.0 5.0 77 107 51 0 1 0 0 0 0 0 1 0 0
75 20.0 20.0 10.0 8.0 141 171 1 0 0 0 1 0 0 0 1 0 0
76 5.0 5.0 10.0 16.0 74 104 53 0 0 1 1 1 0 0 1 0 0
77 60.0 12.0 10.0 31.0 75 105 27 0 0 0 1 1 0 0 0 1 0
78 23.0 3.0 10.0 7.0 150 180 5 0 1 0 0 1 0 0 1 0 0
79 8.0 56.0 10.0 27.0 90 120 18 0 0 0 1 0 1 0 0 0 0
80 6.0 68.0 10.0 30.0 89 119 39 0 0 0 0 0 1 1 0 0 0
81 47.0 47.0 10.0 13.0 192 222 73 0 0 1 1 0 0 0 0 0 0
82 49.0 58.0 10.0 10.0 86 116 11 0 0 0 0 1 1 0 0 0 1
83 27.0 43.0 10.0 9.0 42 72 88 0 0 0 1 0 0 0 0 0 0
84 37.0 31.0 10.0 14.0 35 65 87 0 0 0 0 1 0 0 1 0 1
85 57.0 29.0 10.0 18.0 96 126 18 0 0 0 0 1 0 0 1 0 0
86 63.0 23.0 10.0 2.0 87 117 6 0 0 0 1 0 0 0 0 0 1
87 21.0 24.0 10.0 28.0 87 117 4 0 0 0 0 0 1 0 0 0 0
88 12.0 24.0 10.0 13.0 90 120 29 1 0 0 1 0 0 0 0 0 1
89 24.0 58.0 10.0 19.0 67 97 97 1 1 0 0 0 0 1 0 1 0
90 67.0 5.0 10.0 25.0 144 174 95 0 0 0 0 0 0 0 0 1 0
91 37.0 47.0 10.0 6.0 86 116 75 0 0 1 0 1 0 0 0 0 0
92 49.0 42.0 10.0 13.0 167 197 55 0 0 0 0 0 1 1 0 0 0
93 53.0 43.0 10.0 14.0 14 44 20 0 0 0 0 1 0 0 1 0 0
94 61.0 52.0 10.0 3.0 178 208 17 1 1 0 0 0 1 0 0 0 0
95 57.0 48.0 10.0 23.0 95 125 28 0 1 0 0 0 0 0 0 0 0
96 56.0 37.0 10.0 6.0 34 64 89 0 1 0 1 0 0 0 0 0 1
97 55.0 54.0 10.0 26.0 132 162 11 0 0 0 1 0 0 0 0 0 1
98 4.0 18.0 10.0 35.0 120 150 31 0 0 0 0 0 1 0 0 0 0
99 26.0 52.0 10.0 9.0 46 76 8 0 0 1 0 0 1 0 1 0 0
100 26.0 35.0 10.0 15.0 77 107 42 1 1 0 0 1 0 0 1 0 0
101 31.0 67.0 10.0 3.0 180 210 65 1 1 0 0 0 0 0 0 0 0